70 96 149 68 161 31 16 14 155 138 188 82 78 192 69 194 179 171 147 172 21 6 174 197 85 133 160 159 41 75 71 128 199 30 136 10 190 107 164 178 18 76 177 35 93 89 104 139 169 114 140 143 153 186 67 106 7 38 88 167 102 3 61 116 40 180 137 83 15 151 129 110 1 173 95 141 108 51 50 12 62 9 195 121 36 99 56 98 28 196 2 163 72 119 0 23 17 182 4 165 77 44 84 176 187 157 115 118 112 79 184 145 32 33 60 122 146 152 57 26 80 53 170 100 66 198 175 127 166 101 39 43 130 58 150 27 131 11 144 64 124 134 73 90 59 191 34 154 24 132 109 5 142 42 126 81 120 189 185 117 125 148 37 97 49 162 92 94 20 29 105 86 55 47 8 19 181 103 63 13 25 65 183 111 48 22 45 135 193 168 158 52 46 113 54 87 123 91 156 74